65
1 0 93
2 0 57
2 1 9
3 0 94
3 1 51
3 2 1
4 0 9
4 1 28
4 2 50
4 3 64
5 0 21
5 1 53
5 2 18
5 3 46
5 4 15
6 0 29
6 1 8
6 2 3
6 3 32
6 4 19
6 5 4
7 0 4
7 1 15
7 2 92
7 3 61
7 4 19
7 5 70
7 6 90
8 0 9
8 1 38
8 2 45
8 3 44
8 4 71
8 5 74
8 6 61
8 7 19
9 0 78
9 1 92
9 2 13
9 3 36
9 4 84
9 5 74
9 6 33
9 7 93
9 8 21
10 0 3
10 1 93
10 2 82
10 3 30
10 4 27
10 5 66
10 6 89
10 7 64
10 8 56
10 9 97
11 0 1
11 1 68
11 2 66
11 3 43
11 4 74
11 5 49
11 6 44
11 7 74
11 8 28
11 9 17
11 10 92
12 0 61
12 1 79
12 2 54
12 3 61
12 4 85
12 5 18
12 6 29
12 7 94
12 8 36
12 9 5
12 10 83
12 11 99
13 0 4
13 1 23
13 2 46
13 3 81
13 4 61
13 5 24
13 6 59
13 7 90
13 8 100
13 9 65
13 10 5
13 11 92
13 12 72
14 0 98
14 1 92
14 2 40
14 3 43
14 4 78
14 5 24
14 6 23
14 7 58
14 8 95
14 9 56
14 10 13
14 11 85
14 12 49
14 13 32
15 0 27
15 1 79
15 2 25
15 3 32
15 4 5
15 5 75
15 6 24
15 7 91
15 8 30
15 9 31
15 10 73
15 11 64
15 12 73
15 13 41
15 14 16
16 0 48
16 1 25
16 2 18
16 3 53
16 4 82
16 5 49
16 6 8
16 7 79
16 8 89
16 9 77
16 10 74
16 11 52
16 12 36
16 13 9
16 14 86
16 15 82
17 0 20
17 1 13
17 2 83
17 3 9
17 4 100
17 5 29
17 6 94
17 7 45
17 8 48
17 9 14
17 10 56
17 11 66
17 12 83
17 13 94
17 14 46
17 15 88
17 16 96
18 0 98
18 1 11
18 2 69
18 3 10
18 4 1
18 5 83
18 6 26
18 7 6
18 8 4
18 9 99
18 10 38
18 11 18
18 12 4
18 13 64
18 14 87
18 15 86
18 16 63
18 17 34
19 0 74
19 1 10
19 2 59
19 3 97
19 4 75
19 5 44
19 6 80
19 7 82
19 8 56
19 9 31
19 10 10
19 11 39
19 12 51
19 13 61
19 14 90
19 15 41
19 16 63
19 17 4
19 18 78
20 0 27
20 1 63
20 2 55
20 3 34
20 4 79
20 5 79
20 6 83
20 7 91
20 8 87
20 9 98
20 10 84
20 11 7
20 12 75
20 13 41
20 14 66
20 15 4
20 16 63
20 17 74
20 18 34
20 19 26
21 0 7
21 1 58
21 2 30
21 3 81
21 4 31
21 5 58
21 6 59
21 7 65
21 8 48
21 9 69
21 10 20
21 11 52
21 12 37
21 13 26
21 14 93
21 15 18
21 16 11
21 17 88
21 18 66
21 19 34
21 20 10
22 0 47
22 1 14
22 2 30
22 3 91
22 4 74
22 5 49
22 6 36
22 7 3
22 8 12
22 9 98
22 10 40
22 11 70
22 12 89
22 13 97
22 14 15
22 15 16
22 16 81
22 17 1
22 18 12
22 19 14
22 20 89
22 21 32
23 0 26
23 1 35
23 2 78
23 3 41
23 4 70
23 5 27
23 6 100
23 7 39
23 8 18
23 9 60
23 10 6
23 11 20
23 12 12
23 13 6
23 14 19
23 15 100
23 16 26
23 17 50
23 18 10
23 19 26
23 20 46
23 21 46
23 22 11
24 0 37
24 1 7
24 2 55
24 3 55
24 4 82
24 5 91
24 6 50
24 7 26
24 8 23
24 9 77
24 10 62
24 11 59
24 12 83
24 13 3
24 14 91
24 15 12
24 16 11
24 17 84
24 18 31
24 19 32
24 20 75
24 21 72
24 22 70
24 23 47
25 0 17
25 1 88
25 2 51
25 3 81
25 4 13
25 5 35
25 6 34
25 7 70
25 8 30
25 9 79
25 10 72
25 11 16
25 12 75
25 13 65
25 14 93
25 15 29
25 16 77
25 17 92
25 18 68
25 19 15
25 20 49
25 21 77
25 22 85
25 23 29
25 24 8
26 0 69
26 1 75
26 2 1
26 3 71
26 4 8
26 5 50
26 6 95
26 7 40
26 8 20
26 9 56
26 10 71
26 11 47
26 12 16
26 13 49
26 14 37
26 15 24
26 16 21
26 17 42
26 18 43
26 19 18
26 20 48
26 21 90
26 22 32
26 23 67
26 24 13
26 25 2
27 0 51
27 1 6
27 2 31
27 3 4
27 4 99
27 5 72
27 6 52
27 7 88
27 8 53
27 9 14
27 10 34
27 11 23
27 12 5
27 13 49
27 14 44
27 15 10
27 16 97
27 17 2
27 18 48
27 19 10
27 20 50
27 21 28
27 22 31
27 23 82
27 24 97
27 25 6
27 26 42
28 0 91
28 1 94
28 2 47
28 3 77
28 4 2
28 5 60
28 6 55
28 7 31
28 8 40
28 9 58
28 10 49
28 11 88
28 12 4
28 13 32
28 14 14
28 15 24
28 16 62
28 17 63
28 18 46
28 19 44
28 20 42
28 21 93
28 22 24
28 23 87
28 24 34
28 25 51
28 26 96
28 27 60
29 0 40
29 1 64
29 2 84
29 3 79
29 4 44
29 5 41
29 6 43
29 7 53
29 8 86
29 9 73
29 10 16
29 11 7
29 12 81
29 13 66
29 14 78
29 15 54
29 16 87
29 17 27
29 18 70
29 19 54
29 20 32
29 21 44
29 22 53
29 23 12
29 24 58
29 25 45
29 26 28
29 27 23
29 28 24
30 0 30
30 1 24
30 2 44
30 3 92
30 4 95
30 5 33
30 6 62
30 7 76
30 8 7
30 9 44
30 10 87
30 11 46
30 12 93
30 13 17
30 14 95
30 15 94
30 16 53
30 17 82
30 18 85
30 19 17
30 20 10
30 21 69
30 22 37
30 23 75
30 24 50
30 25 98
30 26 82
30 27 31
30 28 34
30 29 84
31 0 21
31 1 62
31 2 65
31 3 38
31 4 54
31 5 23
31 6 44
31 7 64
31 8 2
31 9 94
31 10 71
31 11 92
31 12 41
31 13 33
31 14 40
31 15 93
31 16 75
31 17 22
31 18 56
31 19 63
31 20 19
31 21 84
31 22 79
31 23 69
31 24 70
31 25 8
31 26 52
31 27 8
31 28 78
31 29 88
31 30 78
32 0 10
32 1 63
32 2 96
32 3 61
32 4 85
32 5 30
32 6 25
32 7 14
32 8 7
32 9 64
32 10 70
32 11 3
32 12 69
32 13 32
32 14 49
32 15 88
32 16 67
32 17 15
32 18 68
32 19 58
32 20 85
32 21 36
32 22 80
32 23 98
32 24 95
32 25 70
32 26 5
32 27 27
32 28 97
32 29 47
32 30 7
32 31 70
33 0 58
33 1 88
33 2 36
33 3 93
33 4 21
33 5 25
33 6 85
33 7 91
33 8 3
33 9 4
33 10 30
33 11 2
33 12 96
33 13 76
33 14 43
33 15 9
33 16 48
33 17 10
33 18 93
33 19 34
33 20 72
33 21 96
33 22 85
33 23 39
33 24 26
33 25 17
33 26 94
33 27 3
33 28 62
33 29 7
33 30 2
33 31 20
33 32 14
34 0 32
34 1 38
34 2 44
34 3 9
34 4 44
34 5 75
34 6 89
34 7 94
34 8 11
34 9 50
34 10 34
34 11 16
34 12 25
34 13 94
34 14 13
34 15 15
34 16 22
34 17 1
34 18 87
34 19 94
34 20 83
34 21 61
34 22 19
34 23 90
34 24 93
34 25 45
34 26 97
34 27 66
34 28 82
34 29 17
34 30 95
34 31 78
34 32 69
34 33 2
35 0 50
35 1 100
35 2 85
35 3 46
35 4 92
35 5 13
35 6 46
35 7 43
35 8 77
35 9 88
35 10 10
35 11 8
35 12 85
35 13 15
35 14 23
35 15 31
35 16 93
35 17 58
35 18 45
35 19 43
35 20 44
35 21 48
35 22 26
35 23 62
35 24 58
35 25 36
35 26 45
35 27 15
35 28 62
35 29 62
35 30 53
35 31 55
35 32 33
35 33 30
35 34 80
36 0 14
36 1 89
36 2 75
36 3 87
36 4 50
36 5 61
36 6 76
36 7 82
36 8 2
36 9 31
36 10 47
36 11 33
36 12 49
36 13 36
36 14 2
36 15 35
36 16 28
36 17 50
36 18 92
36 19 26
36 20 71
36 21 6
36 22 47
36 23 57
36 24 68
36 25 24
36 26 78
36 27 55
36 28 49
36 29 50
36 30 9
36 31 36
36 32 52
36 33 19
36 34 69
36 35 62
37 0 31
37 1 4
37 2 42
37 3 50
37 4 2
37 5 15
37 6 57
37 7 62
37 8 37
37 9 53
37 10 81
37 11 48
37 12 63
37 13 40
37 14 29
37 15 28
37 16 15
37 17 70
37 18 20
37 19 12
37 20 52
37 21 66
37 22 27
37 23 8
37 24 45
37 25 30
37 26 13
37 27 74
37 28 83
37 29 12
37 30 47
37 31 98
37 32 57
37 33 59
37 34 35
37 35 24
37 36 28
38 0 100
38 1 27
38 2 49
38 3 86
38 4 73
38 5 62
38 6 67
38 7 43
38 8 27
38 9 78
38 10 34
38 11 38
38 12 34
38 13 4
38 14 72
38 15 29
38 16 91
38 17 93
38 18 46
38 19 9
38 20 11
38 21 70
38 22 72
38 23 69
38 24 25
38 25 13
38 26 57
38 27 98
38 28 51
38 29 82
38 30 55
38 31 88
38 32 90
38 33 65
38 34 6
38 35 82
38 36 57
38 37 10
39 0 99
39 1 95
39 2 76
39 3 54
39 4 49
39 5 84
39 6 75
39 7 75
39 8 11
39 9 49
39 10 63
39 11 32
39 12 41
39 13 98
39 14 87
39 15 57
39 16 4
39 17 1
39 18 88
39 19 18
39 20 75
39 21 16
39 22 18
39 23 77
39 24 74
39 25 67
39 26 69
39 27 97
39 28 55
39 29 3
39 30 40
39 31 85
39 32 18
39 33 72
39 34 42
39 35 65
39 36 29
39 37 81
39 38 3
40 0 21
40 1 54
40 2 30
40 3 49
40 4 63
40 5 51
40 6 55
40 7 46
40 8 86
40 9 80
40 10 90
40 11 43
40 12 48
40 13 9
40 14 52
40 15 52
40 16 74
40 17 37
40 18 16
40 19 45
40 20 55
40 21 72
40 22 4
40 23 73
40 24 24
40 25 8
40 26 42
40 27 11
40 28 97
40 29 14
40 30 33
40 31 1
40 32 35
40 33 20
40 34 56
40 35 54
40 36 56
40 37 55
40 38 97
40 39 9
41 0 96
41 1 89
41 2 59
41 3 81
41 4 15
41 5 69
41 6 23
41 7 38
41 8 78
41 9 61
41 10 46
41 11 86
41 12 73
41 13 23
41 14 10
41 15 59
41 16 39
41 17 97
41 18 78
41 19 42
41 20 9
41 21 73
41 22 14
41 23 68
41 24 4
41 25 60
41 26 63
41 27 68
41 28 28
41 29 93
41 30 5
41 31 73
41 32 44
41 33 36
41 34 30
41 35 89
41 36 45
41 37 68
41 38 7
41 39 100
41 40 32
42 0 65
42 1 19
42 2 62
42 3 72
42 4 10
42 5 7
42 6 97
42 7 6
42 8 4
42 9 52
42 10 8
42 11 22
42 12 43
42 13 55
42 14 61
42 15 2
42 16 98
42 17 33
42 18 6
42 19 27
42 20 11
42 21 17
42 22 50
42 23 95
42 24 87
42 25 21
42 26 85
42 27 76
42 28 54
42 29 34
42 30 35
42 31 13
42 32 14
42 33 33
42 34 88
42 35 52
42 36 8
42 37 33
42 38 23
42 39 53
42 40 76
42 41 22
43 0 35
43 1 8
43 2 72
43 3 35
43 4 28
43 5 79
43 6 74
43 7 81
43 8 42
43 9 29
43 10 100
43 11 17
43 12 9
43 13 14
43 14 7
43 15 29
43 16 61
43 17 38
43 18 58
43 19 81
43 20 55
43 21 16
43 22 57
43 23 20
43 24 64
43 25 85
43 26 7
43 27 67
43 28 49
43 29 52
43 30 30
43 31 24
43 32 40
43 33 82
43 34 57
43 35 73
43 36 57
43 37 50
43 38 82
43 39 50
43 40 58
43 41 25
43 42 33
44 0 27
44 1 14
44 2 54
44 3 100
44 4 27
44 5 25
44 6 54
44 7 27
44 8 57
44 9 34
44 10 51
44 11 69
44 12 29
44 13 11
44 14 4
44 15 51
44 16 18
44 17 4
44 18 12
44 19 94
44 20 64
44 21 80
44 22 95
44 23 83
44 24 18
44 25 14
44 26 91
44 27 12
44 28 98
44 29 80
44 30 12
44 31 12
44 32 94
44 33 70
44 34 49
44 35 52
44 36 51
44 37 39
44 38 25
44 39 72
44 40 98
44 41 39
44 42 30
44 43 89
45 0 26
45 1 19
45 2 94
45 3 83
45 4 22
45 5 74
45 6 64
45 7 46
45 8 7
45 9 84
45 10 20
45 11 70
45 12 40
45 13 81
45 14 24
45 15 88
45 16 90
45 17 19
45 18 84
45 19 4
45 20 87
45 21 58
45 22 4
45 23 69
45 24 91
45 25 60
45 26 19
45 27 5
45 28 55
45 29 77
45 30 59
45 31 64
45 32 74
45 33 82
45 34 80
45 35 78
45 36 26
45 37 46
45 38 59
45 39 56
45 40 66
45 41 98
45 42 47
45 43 7
45 44 19
46 0 99
46 1 10
46 2 14
46 3 90
46 4 13
46 5 23
46 6 80
46 7 82
46 8 76
46 9 86
46 10 20
46 11 83
46 12 82
46 13 69
46 14 79
46 15 87
46 16 35
46 17 26
46 18 87
46 19 32
46 20 41
46 21 23
46 22 92
46 23 83
46 24 44
46 25 52
46 26 26
46 27 96
46 28 25
46 29 69
46 30 97
46 31 39
46 32 9
46 33 40
46 34 10
46 35 48
46 36 65
46 37 89
46 38 64
46 39 53
46 40 85
46 41 12
46 42 77
46 43 99
46 44 78
46 45 54
47 0 31
47 1 49
47 2 18
47 3 97
47 4 41
47 5 42
47 6 24
47 7 5
47 8 98
47 9 38
47 10 72
47 11 97
47 12 33
47 13 84
47 14 64
47 15 78
47 16 94
47 17 75
47 18 93
47 19 23
47 20 52
47 21 95
47 22 88
47 23 11
47 24 63
47 25 66
47 26 44
47 27 44
47 28 54
47 29 36
47 30 36
47 31 97
47 32 19
47 33 83
47 34 91
47 35 1
47 36 34
47 37 19
47 38 86
47 39 24
47 40 26
47 41 25
47 42 55
47 43 36
47 44 64
47 45 38
47 46 54
48 0 50
48 1 49
48 2 85
48 3 10
48 4 83
48 5 19
48 6 30
48 7 42
48 8 77
48 9 16
48 10 69
48 11 53
48 12 76
48 13 48
48 14 11
48 15 2
48 16 55
48 17 67
48 18 11
48 19 22
48 20 23
48 21 45
48 22 45
48 23 52
48 24 82
48 25 7
48 26 51
48 27 79
48 28 87
48 29 63
48 30 78
48 31 11
48 32 41
48 33 42
48 34 1
48 35 43
48 36 40
48 37 26
48 38 12
48 39 76
48 40 25
48 41 30
48 42 78
48 43 94
48 44 27
48 45 84
48 46 47
48 47 22
49 0 3
49 1 3
49 2 24
49 3 17
49 4 96
49 5 63
49 6 54
49 7 56
49 8 77
49 9 10
49 10 92
49 11 30
49 12 41
49 13 67
49 14 27
49 15 69
49 16 75
49 17 33
49 18 21
49 19 35
49 20 10
49 21 69
49 22 51
49 23 66
49 24 36
49 25 23
49 26 75
49 27 68
49 28 30
49 29 48
49 30 64
49 31 83
49 32 34
49 33 99
49 34 73
49 35 68
49 36 90
49 37 26
49 38 31
49 39 79
49 40 92
49 41 85
49 42 80
49 43 38
49 44 47
49 45 50
49 46 2
49 47 26
49 48 32
50 0 95
50 1 95
50 2 35
50 3 91
50 4 64
50 5 100
50 6 62
50 7 19
50 8 61
50 9 90
50 10 44
50 11 22
50 12 34
50 13 73
50 14 49
50 15 43
50 16 16
50 17 56
50 18 87
50 19 1
50 20 64
50 21 92
50 22 95
50 23 88
50 24 3
50 25 96
50 26 16
50 27 5
50 28 60
50 29 6
50 30 76
50 31 44
50 32 57
50 33 21
50 34 29
50 35 51
50 36 88
50 37 41
50 38 21
50 39 8
50 40 5
50 41 2
50 42 88
50 43 38
50 44 81
50 45 65
50 46 7
50 47 19
50 48 37
50 49 17
51 0 50
51 1 46
51 2 36
51 3 84
51 4 9
51 5 92
51 6 96
51 7 59
51 8 98
51 9 55
51 10 62
51 11 13
51 12 56
51 13 83
51 14 45
51 15 32
51 16 92
51 17 26
51 18 22
51 19 81
51 20 54
51 21 48
51 22 45
51 23 19
51 24 14
51 25 98
51 26 18
51 27 99
51 28 5
51 29 38
51 30 15
51 31 29
51 32 37
51 33 49
51 34 77
51 35 70
51 36 95
51 37 90
51 38 100
51 39 16
51 40 85
51 41 70
51 42 81
51 43 67
51 44 85
51 45 50
51 46 22
51 47 89
51 48 21
51 49 3
51 50 86
52 0 39
52 1 61
52 2 86
52 3 45
52 4 75
52 5 19
52 6 100
52 7 97
52 8 97
52 9 91
52 10 50
52 11 9
52 12 86
52 13 73
52 14 36
52 15 32
52 16 25
52 17 41
52 18 17
52 19 91
52 20 37
52 21 82
52 22 45
52 23 36
52 24 65
52 25 4
52 26 67
52 27 31
52 28 70
52 29 78
52 30 17
52 31 85
52 32 39
52 33 78
52 34 67
52 35 82
52 36 21
52 37 26
52 38 9
52 39 41
52 40 32
52 41 58
52 42 74
52 43 29
52 44 96
52 45 67
52 46 21
52 47 100
52 48 18
52 49 88
52 50 44
52 51 31
53 0 100
53 1 38
53 2 89
53 3 88
53 4 53
53 5 16
53 6 71
53 7 30
53 8 61
53 9 29
53 10 36
53 11 49
53 12 97
53 13 10
53 14 16
53 15 85
53 16 11
53 17 21
53 18 48
53 19 82
53 20 18
53 21 81
53 22 84
53 23 70
53 24 72
53 25 54
53 26 100
53 27 74
53 28 11
53 29 69
53 30 77
53 31 4
53 32 84
53 33 89
53 34 12
53 35 74
53 36 12
53 37 28
53 38 97
53 39 40
53 40 45
53 41 90
53 42 57
53 43 69
53 44 18
53 45 78
53 46 36
53 47 79
53 48 98
53 49 99
53 50 90
53 51 1
53 52 2
54 0 61
54 1 2
54 2 60
54 3 19
54 4 37
54 5 42
54 6 81
54 7 47
54 8 53
54 9 37
54 10 61
54 11 61
54 12 97
54 13 22
54 14 53
54 15 52
54 16 93
54 17 77
54 18 78
54 19 99
54 20 60
54 21 91
54 22 43
54 23 78
54 24 59
54 25 95
54 26 24
54 27 20
54 28 1
54 29 48
54 30 67
54 31 57
54 32 59
54 33 89
54 34 94
54 35 27
54 36 25
54 37 75
54 38 25
54 39 37
54 40 81
54 41 61
54 42 55
54 43 86
54 44 93
54 45 8
54 46 43
54 47 4
54 48 45
54 49 24
54 50 5
54 51 75
54 52 67
54 53 59
55 0 15
55 1 23
55 2 21
55 3 16
55 4 56
55 5 94
55 6 55
55 7 62
55 8 84
55 9 65
55 10 46
55 11 36
55 12 81
55 13 62
55 14 75
55 15 83
55 16 24
55 17 57
55 18 12
55 19 84
55 20 88
55 21 83
55 22 13
55 23 37
55 24 64
55 25 5
55 26 48
55 27 28
55 28 62
55 29 99
55 30 7
55 31 78
55 32 13
55 33 55
55 34 70
55 35 71
55 36 26
55 37 4
55 38 18
55 39 98
55 40 23
55 41 18
55 42 36
55 43 52
55 44 79
55 45 56
55 46 31
55 47 93
55 48 53
55 49 32
55 50 59
55 51 34
55 52 47
55 53 45
55 54 44
56 0 43
56 1 78
56 2 94
56 3 28
56 4 40
56 5 9
56 6 57
56 7 85
56 8 56
56 9 95
56 10 23
56 11 88
56 12 69
56 13 42
56 14 94
56 15 16
56 16 28
56 17 69
56 18 100
56 19 30
56 20 56
56 21 40
56 22 97
56 23 68
56 24 63
56 25 84
56 26 33
56 27 32
56 28 25
56 29 48
56 30 15
56 31 61
56 32 13
56 33 27
56 34 99
56 35 20
56 36 72
56 37 73
56 38 86
56 39 54
56 40 80
56 41 82
56 42 14
56 43 74
56 44 47
56 45 11
56 46 58
56 47 83
56 48 30
56 49 61
56 50 81
56 51 55
56 52 71
56 53 46
56 54 19
56 55 29
57 0 80
57 1 27
57 2 63
57 3 78
57 4 40
57 5 71
57 6 84
57 7 67
57 8 85
57 9 78
57 10 31
57 11 5
57 12 77
57 13 80
57 14 68
57 15 57
57 16 5
57 17 8
57 18 46
57 19 84
57 20 61
57 21 75
57 22 28
57 23 4
57 24 74
57 25 27
57 26 9
57 27 8
57 28 7
57 29 54
57 30 98
57 31 67
57 32 44
57 33 72
57 34 49
57 35 24
57 36 30
57 37 9
57 38 75
57 39 40
57 40 34
57 41 61
57 42 71
57 43 53
57 44 48
57 45 2
57 46 15
57 47 69
57 48 48
57 49 52
57 50 53
57 51 71
57 52 76
57 53 59
57 54 69
57 55 55
57 56 11
58 0 33
58 1 98
58 2 91
58 3 60
58 4 35
58 5 33
58 6 88
58 7 61
58 8 24
58 9 32
58 10 11
58 11 98
58 12 100
58 13 41
58 14 64
58 15 62
58 16 11
58 17 64
58 18 63
58 19 4
58 20 94
58 21 66
58 22 34
58 23 79
58 24 83
58 25 81
58 26 30
58 27 58
58 28 4
58 29 67
58 30 42
58 31 69
58 32 18
58 33 20
58 34 59
58 35 96
58 36 15
58 37 46
58 38 87
58 39 35
58 40 51
58 41 62
58 42 42
58 43 94
58 44 75
58 45 49
58 46 77
58 47 93
58 48 4
58 49 7
58 50 1
58 51 83
58 52 36
58 53 71
58 54 11
58 55 8
58 56 2
58 57 79
59 0 31
59 1 63
59 2 12
59 3 19
59 4 45
59 5 39
59 6 35
59 7 95
59 8 52
59 9 47
59 10 13
59 11 68
59 12 93
59 13 56
59 14 20
59 15 80
59 16 20
59 17 4
59 18 93
59 19 74
59 20 10
59 21 59
59 22 7
59 23 42
59 24 45
59 25 32
59 26 74
59 27 88
59 28 8
59 29 77
59 30 78
59 31 82
59 32 67
59 33 29
59 34 87
59 35 26
59 36 54
59 37 67
59 38 94
59 39 83
59 40 43
59 41 97
59 42 86
59 43 28
59 44 5
59 45 91
59 46 40
59 47 18
59 48 87
59 49 40
59 50 86
59 51 89
59 52 24
59 53 93
59 54 9
59 55 43
59 56 22
59 57 96
59 58 60
60 0 70
60 1 26
60 2 52
60 3 92
60 4 12
60 5 91
60 6 66
60 7 71
60 8 80
60 9 13
60 10 46
60 11 1
60 12 72
60 13 75
60 14 76
60 15 67
60 16 50
60 17 39
60 18 78
60 19 98
60 20 82
60 21 65
60 22 32
60 23 94
60 24 56
60 25 57
60 26 19
60 27 67
60 28 10
60 29 50
60 30 11
60 31 91
60 32 54
60 33 4
60 34 14
60 35 77
60 36 61
60 37 57
60 38 46
60 39 91
60 40 61
60 41 62
60 42 4
60 43 98
60 44 72
60 45 3
60 46 48
60 47 4
60 48 35
60 49 62
60 50 13
60 51 8
60 52 48
60 53 1
60 54 17
60 55 14
60 56 15
60 57 58
60 58 44
60 59 45
61 0 60
61 1 81
61 2 93
61 3 55
61 4 56
61 5 49
61 6 47
61 7 59
61 8 84
61 9 61
61 10 95
61 11 96
61 12 19
61 13 72
61 14 98
61 15 7
61 16 3
61 17 32
61 18 4
61 19 5
61 20 60
61 21 36
61 22 40
61 23 43
61 24 50
61 25 100
61 26 32
61 27 32
61 28 79
61 29 33
61 30 45
61 31 54
61 32 15
61 33 36
61 34 29
61 35 64
61 36 60
61 37 88
61 38 29
61 39 95
61 40 91
61 41 80
61 42 81
61 43 96
61 44 72
61 45 92
61 46 100
61 47 65
61 48 87
61 49 61
61 50 51
61 51 75
61 52 63
61 53 59
61 54 46
61 55 81
61 56 70
61 57 73
61 58 3
61 59 69
61 60 18
62 0 81
62 1 63
62 2 96
62 3 93
62 4 50
62 5 70
62 6 2
62 7 7
62 8 1
62 9 27
62 10 19
62 11 37
62 12 15
62 13 10
62 14 7
62 15 93
62 16 84
62 17 92
62 18 71
62 19 36
62 20 24
62 21 3
62 22 59
62 23 35
62 24 6
62 25 48
62 26 43
62 27 32
62 28 72
62 29 34
62 30 20
62 31 54
62 32 39
62 33 95
62 34 100
62 35 1
62 36 14
62 37 17
62 38 58
62 39 86
62 40 65
62 41 82
62 42 76
62 43 10
62 44 33
62 45 11
62 46 88
62 47 1
62 48 68
62 49 56
62 50 20
62 51 49
62 52 24
62 53 73
62 54 81
62 55 13
62 56 65
62 57 84
62 58 36
62 59 89
62 60 35
62 61 1
63 0 94
63 1 52
63 2 21
63 3 79
63 4 65
63 5 24
63 6 10
63 7 14
63 8 76
63 9 28
63 10 93
63 11 1
63 12 67
63 13 26
63 14 2
63 15 27
63 16 85
63 17 53
63 18 60
63 19 62
63 20 51
63 21 94
63 22 84
63 23 60
63 24 84
63 25 67
63 26 84
63 27 5
63 28 91
63 29 15
63 30 22
63 31 41
63 32 57
63 33 8
63 34 56
63 35 90
63 36 100
63 37 13
63 38 55
63 39 41
63 40 86
63 41 90
63 42 76
63 43 51
63 44 90
63 45 15
63 46 37
63 47 11
63 48 67
63 49 33
63 50 15
63 51 60
63 52 80
63 53 5
63 54 79
63 55 45
63 56 74
63 57 93
63 58 7
63 59 64
63 60 6
63 61 96
63 62 62
64 0 42
64 1 68
64 2 41
64 3 32
64 4 27
64 5 68
64 6 81
64 7 44
64 8 1
64 9 52
64 10 54
64 11 23
64 12 45
64 13 77
64 14 16
64 15 36
64 16 11
64 17 70
64 18 44
64 19 64
64 20 72
64 21 47
64 22 71
64 23 80
64 24 76
64 25 57
64 26 2
64 27 18
64 28 8
64 29 84
64 30 19
64 31 87
64 32 35
64 33 25
64 34 86
64 35 35
64 36 5
64 37 19
64 38 91
64 39 86
64 40 11
64 41 8
64 42 10
64 43 100
64 44 37
64 45 37
64 46 64
64 47 27
64 48 62
64 49 38
64 50 97
64 51 59
64 52 81
64 53 52
64 54 26
64 55 94
64 56 63
64 57 81
64 58 14
64 59 78
64 60 69
64 61 76
64 62 67
64 63 76
